
Gurobi 10.0.2 (linux64) logging started Sun 21 Jul 2024 05:20:49 AM -05

Set parameter LogFile to value "gurobi.log"
Gurobi Optimizer version 10.0.2 build v10.0.2rc0 (linux64)

CPU model: Intel(R) Core(TM) i5-1035G1 CPU @ 1.00GHz, instruction set [SSE2|AVX|AVX2|AVX512]
Thread count: 4 physical cores, 8 logical processors, using up to 8 threads

Academic license 2446675 - for non-commercial use only - registered to mi___@epn.edu.ec
Optimize a model with 2942 rows, 1440 columns and 26478 nonzeros
Model fingerprint: 0x653ca6a1
Variable types: 0 continuous, 1440 integer (251 binary)
Coefficient statistics:
  Matrix range     [1e+00, 1e+03]
  Objective range  [1e+00, 1e+00]
  Bounds range     [1e+00, 1e+03]
  RHS range        [1e+00, 2e+03]
Presolve removed 2942 rows and 1440 columns
Presolve time: 0.01s
Presolve: All rows and columns removed

Explored 0 nodes (0 simplex iterations) in 0.02 seconds (0.02 work units)
Thread count was 1 (of 8 available processors)

Solution count 1: 36407 

Optimal solution found (tolerance 1.00e-04)
Best objective 3.640700000000e+04, best bound 3.640700000000e+04, gap 0.0000%
